\* Problem: Unknown *\

Maximize
 obj: + xp_0_0 + xp_0_1 + xp_0_2 + xp_0_3 + xp_0_4 + xp_0_5 + xp_0_6
 + xp_1_0 + xp_1_1 + xp_1_2 + xp_2_0 + xp_2_1 + xp_2_2 + xp_2_3 + xp_2_4
 + xp_3_0 + xp_3_1 + xp_3_2 + xp_3_3 + xp_4_0 + xp_5_0 + xp_5_1 + xp_5_2
 + xp_6_0 + xp_6_1 + xp_6_2 + xp_7_0 + xp_7_1 + xp_8_0 + xp_8_1 + xp_9_0
 + xp_10_0 + xp_10_1 + xp_11_0 + xp_11_1 + xp_11_2 + xp_11_3 + xp_12_0
 + xp_13_0 + xp_13_1 + xp_14_0 + xp_14_1 + xp_15_0 + xp_15_1 + xp_16_0
 + xp_16_1 + xp_17_0 + xp_17_1 + xp_17_2 + xp_17_3 + xp_17_4 + xp_17_5
 + xp_17_6 + xp_18_0 + xp_18_1 + xp_18_2 + xp_18_3 + xp_18_4 + xp_19_0
 + xp_19_1 + xp_19_2 + xp_19_3 + xp_19_4 + xp_20_0 + xp_20_1 + xp_20_2
 + xp_20_3 + xp_21_0 + xp_21_1 + xp_21_2 + xp_21_3 + xp_22_0 + xp_22_1
 + xp_22_2 + xp_22_3 + xp_22_4 + xp_22_5 + xp_23_0 + xp_23_1 + xp_23_2
 + xp_23_3 + xp_23_4

Subject To
 r_1: 0 xp_0_0 <= 30
 r_2: + xp_22_2 + xp_18_3 + xp_5_2 + xp_2_3 <= 28.1610576923077
 r_3: + xp_21_2 + xp_18_4 + xp_18_2 + xp_15_1 + xp_6_1 <= 30
 r_4: + xp_17_1 + xp_15_0 <= 30
 r_5: + xp_18_0 <= 27.6720505617978
 r_6: + xp_18_1 <= 30
 r_7: + xp_20_3 <= 30
 r_8: + xp_23_4 + xp_22_5 + xp_11_2 + xp_5_1 + xp_3_3 + xp_3_2 + xp_2_2
 <= 28.1610576923077
 r_9: + xp_23_2 + xp_11_1 + xp_3_1 <= 30
 r_10: + xp_3_0 <= 30
 r_11: + xp_18_4 + xp_18_1 + xp_11_3 <= 27.6720505617978
 r_12: + xp_11_0 <= 30
 r_13: 0 xp_0_0 <= 30
 r_14: + xp_21_3 + xp_14_0 + xp_0_4 + xp_0_1 <= 28.1610576923077
 r_15: + xp_21_0 <= 30
 r_16: + xp_22_1 + xp_21_1 + xp_19_4 + xp_19_2 + xp_0_3 + xp_0_2 <= 30
 r_17: + xp_0_0 <= 27.6720505617978
 r_18: + xp_21_2 + xp_4_0 <= 30
 r_19: + xp_19_0 <= 30
 r_20: + xp_19_3 + xp_19_1 + xp_14_1 + xp_0_6 + xp_0_5 <= 30
 r_21: + xp_20_1 <= 28.1610576923077
 r_22: + xp_21_3 + xp_7_1 <= 28.1610576923077
 r_23: + xp_22_5 + xp_22_3 + xp_22_2 + xp_17_4 + xp_3_3
 <= 28.1610576923077
 r_24: + xp_23_4 + xp_23_3 + xp_18_3 + xp_17_3 + xp_6_2 + xp_3_2
 + xp_0_6 + xp_0_4 <= 29.2225609756098
 r_25: 0 xp_0_0 <= 28.1610576923077
 r_26: + xp_0_5 + xp_0_1 <= 27.6720505617978
 r_27: + xp_11_2 <= 28.1610576923077
 r_28: + xp_19_3 + xp_10_1 <= 28.1610576923077
 r_29: + xp_20_2 <= 30
 r_30: + xp_2_0 <= 28.1610576923077
 r_31: + xp_23_2 + xp_18_2 + xp_15_1 + xp_6_1 + xp_3_1 + xp_2_4
 <= 29.2225609756098
 r_32: + xp_2_1 <= 30
 r_33: + xp_11_1 + xp_2_3 <= 30
 r_34: + xp_18_4 + xp_2_2 <= 30
 r_35: 0 xp_0_0 <= 30
 r_36: + xp_9_0 <= 28.1610576923077
 r_37: + xp_21_1 + xp_13_1 + xp_8_1 <= 29.2225609756098
 r_38: + xp_19_4 + xp_1_1 <= 30
 r_39: + xp_19_2 + xp_17_4 + xp_17_2 + xp_3_3 + xp_0_3 <= 30
 r_40: + xp_0_2 <= 27.6720505617978
 r_41: + xp_12_0 + xp_2_4 <= 29.2225609756098
 r_42: + xp_21_1 <= 29.2225609756098
 r_43: + xp_22_4 + xp_16_0 <= 29.2225609756098
 r_44: + xp_23_4 + xp_23_3 + xp_23_2 + xp_23_1 + xp_16_1 + xp_1_2
 <= 29.2225609756098
 r_45: + xp_17_5 + xp_17_3 + xp_15_1 + xp_3_2 + xp_3_1
 <= 29.2225609756098
 r_46: + xp_18_3 + xp_18_2 + xp_0_6 + xp_0_4 <= 27.6720505617978
 r_47: + xp_16_1 + xp_13_1 <= 30
 r_48: + xp_13_0 <= 29.2225609756098
 r_49: + xp_19_4 + xp_17_6 <= 30
 r_50: 0 xp_0_0 <= 27.6720505617978
 r_51: + xp_8_1 + xp_1_1 <= 30
 r_52: + xp_8_0 + xp_1_2 <= 29.2225609756098
 r_53: + xp_1_0 <= 30
 r_54: + xp_0_3 <= 27.6720505617978
 r_55: 0 xp_0_0 <= 30
 r_56: + xp_19_4 + xp_19_2 <= 30
 r_57: + xp_22_1 <= 27.6720505617978
 r_58: + xp_23_3 + xp_22_3 + xp_17_4 + xp_17_3 + xp_6_2 + xp_5_0
 <= 27.6720505617978
 r_59: + xp_22_0 + xp_17_2 <= 27.6720505617978
 r_60: + xp_23_1 + xp_22_4 + xp_17_5 + xp_6_0 <= 27.6720505617978
 r_61: + xp_23_0 + xp_17_6 <= 27.6720505617978
 r_62: + xp_17_0 <= 27.6720505617978
 r_63: + xp_22_2 + xp_17_1 + xp_11_3 + xp_6_1 + xp_5_2
 <= 27.6720505617978
 r_64: + xp_23_4 + xp_23_2 + xp_22_5 + xp_5_1 <= 27.6720505617978
 r_65: + xp_20_1 + xp_19_3 + xp_14_1 + xp_10_1 + xp_7_1 + xp_2_1
 + xp_0_6 + xp_0_5 <= 28.1610576923077
 r_66: + xp_20_2 + xp_7_0 <= 30
 r_67: + xp_20_3 + xp_19_1 + xp_10_0 <= 30
 r_68: + xp_20_0 <= 30

Bounds
 0 <= xp_0_0 <= 28.0114506282956
 0 <= xp_0_1 <= 13.8836901588086
 0 <= xp_0_2 <= 15.0497182492081
 0 <= xp_0_3 <= 2.76587333916326
 0 <= xp_0_4 <= 0.921957779721087
 0 <= xp_0_5 <= 0.921957779721087
 0 <= xp_0_6 <= 0.921957779721087
 0 <= xp_1_0 <= 20.6899613563368
 0 <= xp_1_1 <= 11.2804862142574
 0 <= xp_1_2 <= 3.00994364984162
 0 <= xp_2_0 <= 22.7146721910504
 0 <= xp_2_1 <= 0.822533321079518
 0 <= xp_2_2 <= 3.83247697092114
 0 <= xp_2_3 <= 4.11266660539759
 0 <= xp_2_4 <= 3.00994364984162
 0 <= xp_3_0 <= 25.7336516917288
 0 <= xp_3_1 <= 4.66404614283748
 0 <= xp_3_2 <= 1.10273499533057
 0 <= xp_3_3 <= 0.551367497665287
 0 <= xp_4_0 <= 26.0319190477662
 0 <= xp_5_0 <= 11.5697417990072
 0 <= xp_5_1 <= 5.7848708995036
 0 <= xp_5_2 <= 8.6773063492554
 0 <= xp_6_0 <= 18.2223433334363
 0 <= xp_6_1 <= 2.60319190477662
 0 <= xp_6_2 <= 2.60319190477662
 0 <= xp_7_0 <= 19.9578046032874
 0 <= xp_7_1 <= 2.49472557541093
 0 <= xp_8_0 <= 15.6914623149035
 0 <= xp_8_1 <= 4.48327494711529
 0 <= xp_9_0 <= 18.710441815582
 0 <= xp_10_0 <= 16.6315038360728
 0 <= xp_10_1 <= 2.07893797950911
 0 <= xp_11_0 <= 27.0894928485746
 0 <= xp_11_1 <= 15.0497182492081
 0 <= xp_11_2 <= 9.02983094952485
 0 <= xp_11_3 <= 3.00994364984162
 0 <= xp_12_0 <= 17.5715453572422
 0 <= xp_13_0 <= 13.2871253472973
 0 <= xp_13_1 <= 3.79632152779924
 0 <= xp_14_0 <= 9.03886078047438
 0 <= xp_14_1 <= 7.2310886243795
 0 <= xp_15_0 <= 14.3175554762714
 0 <= xp_15_1 <= 1.78969443453393
 0 <= xp_16_0 <= 13.739068386321
 0 <= xp_16_1 <= 1.71738354829013
 0 <= xp_17_0 <= 28.1108750869372
 0 <= xp_17_1 <= 5.02560659394375
 0 <= xp_17_2 <= 4.03132588820427
 0 <= xp_17_3 <= 2.01566294410214
 0 <= xp_17_4 <= 2.01566294410214
 0 <= xp_17_5 <= 2.01566294410214
 0 <= xp_17_6 <= 2.01566294410214
 0 <= xp_18_0 <= 21.6209429471201
 0 <= xp_18_1 <= 13.8385048847372
 0 <= xp_18_2 <= 1.79873028537075
 0 <= xp_18_3 <= 3.00994364984162
 0 <= xp_18_4 <= 3.00994364984162
 0 <= xp_19_0 <= 28.8339899692625
 0 <= xp_19_1 <= 6.97798848275162
 0 <= xp_19_2 <= 1.7444971206879
 0 <= xp_19_3 <= 3.48899424137581
 0 <= xp_19_4 <= 1.7444971206879
 0 <= xp_20_0 <= 27.3877662244993
 0 <= xp_20_1 <= 6.61643405153264
 0 <= xp_20_2 <= 6.31816067560794
 0 <= xp_20_3 <= 1.65410851288316
 0 <= xp_21_0 <= 30
 0 <= xp_21_1 <= 4.36576072713817
 0 <= xp_21_2 <= 2.91050715142545
 0 <= xp_21_3 <= 2.91050715142545
 0 <= xp_22_0 <= 23.1575673394627
 0 <= xp_22_1 <= 1.27447636010324
 0 <= xp_22_2 <= 4.28442000994485
 0 <= xp_22_3 <= 5.55889637004809
 0 <= xp_22_4 <= 1.27447636010324
 0 <= xp_22_5 <= 3.00994364984162
 0 <= xp_23_0 <= 26.1675109893043
 0 <= xp_23_1 <= 3.82342908030971
 0 <= xp_23_2 <= 4.28442000994485
 0 <= xp_23_3 <= 1.27447636010324
 0 <= xp_23_4 <= 3.00994364984162

End
